<?xml version = "1.0" standalone="yes"?>
<!-- This file has been generated by DOcplex version 2.23.222  -->
<CPLEXSolution version="1.0">
 <header
   problemName="CVRP"
   objectiveValue="11656.8"
  />
 <variables>
  <variable name="x_0_1" index="0" value="1.00000"/>
  <variable name="x_0_3" index="2" value="1.00000"/>
  <variable name="x_0_5" index="4" value="1.00000"/>
  <variable name="x_0_6" index="5" value="1.00000"/>
  <variable name="x_0_7" index="6" value="1.00000"/>
  <variable name="x_0_8" index="7" value="1.00000"/>
  <variable name="x_0_9" index="8" value="1.00000"/>
  <variable name="x_0_11" index="10" value="1.00000"/>
  <variable name="x_0_12" index="11" value="1.00000"/>
  <variable name="x_0_13" index="12" value="1.00000"/>
  <variable name="x_0_14" index="13" value="1.00000"/>
  <variable name="x_1_0" index="14" value="1.00000"/>
  <variable name="x_2_0" index="28" value="1.00000"/>
  <variable name="x_3_2" index="44" value="1.00000"/>
  <variable name="x_4_10" index="65" value="1.00000"/>
  <variable name="x_5_0" index="70" value="1.00000"/>
  <variable name="x_6_0" index="84" value="1.00000"/>
  <variable name="x_7_0" index="98" value="1.00000"/>
  <variable name="x_8_0" index="112" value="1.00000"/>
  <variable name="x_9_0" index="126" value="1.00000"/>
  <variable name="x_10_0" index="140" value="1.00000"/>
  <variable name="x_11_4" index="158" value="1.00000"/>
  <variable name="x_12_0" index="168" value="1.00000"/>
  <variable name="x_13_0" index="182" value="1.00000"/>
  <variable name="x_14_0" index="196" value="1.00000"/>
  <variable name="u_1" index="210" value="48.00000"/>
  <variable name="u_2" index="211" value="58.00000"/>
  <variable name="u_3" index="212" value="30.00000"/>
  <variable name="u_4" index="213" value="21.00000"/>
  <variable name="u_5" index="214" value="70.00000"/>
  <variable name="u_6" index="215" value="47.00000"/>
  <variable name="u_7" index="216" value="42.00000"/>
  <variable name="u_8" index="217" value="50.00000"/>
  <variable name="u_9" index="218" value="68.00000"/>
  <variable name="u_10" index="219" value="68.00000"/>
  <variable name="u_11" index="220" value="4.00000"/>
  <variable name="u_12" index="221" value="43.00000"/>
  <variable name="u_13" index="222" value="68.00000"/>
  <variable name="u_14" index="223" value="49.00000"/>
 </variables>
</CPLEXSolution>
